 H 
 1.0000000000000000
     8.0000000000000000    0.0000000000000000    0.0000000000000000
     0.0000000000000000    8.0000000000000000    0.0000000000000000
     0.0000000000000000    0.0000000000000000    8.0000000000000000
 H  
   2
Cartesian
  0.0000000000000000  0.0000000000000000  0.3685830000000000
  0.0000000000000000  0.0000000000000000 -0.3685830000000000
