Ga2 As2
1.0
   2.0267331018929799   -3.5104047058603114    0.0000000000000000
   2.0267331018929799    3.5104047058603114    0.0000000000000000
   0.0000000000000000    0.0000000000000000    6.6795580000000001
Ga As
2 2
direct
   0.6666666666666666    0.3333333333333333    0.4999890000000000 Ga3+
   0.3333333333333333    0.6666666666666666    0.9999890000000000 Ga3+
   0.6666666666666666    0.3333333333333333    0.8740110000000000 As3-
   0.3333333333333333    0.6666666666666666    0.3740109999999999 As3-
